4 1
4 2
7 2
11 2
11 9
12 4
14 1
14 4
14 9
14 11
14 12
16 2
18 4
19 2
19 4
19 7
19 13
19 17
20 1
20 4
20 12
20 14
21 4
21 12
21 14
21 20
22 3
22 16
23 2
23 3
23 19
27 13
27 19
29 2
29 23
31 5
32 2
32 4
32 12
32 14
32 19
32 20
32 21
33 2
33 3
33 7
33 23
33 29
34 2
34 4
34 5
34 7
34 12
34 14
34 19
34 20
34 21
34 31
34 32
35 2
35 7
35 19
35 23
35 29
35 34
36 12
37 17
37 19
39 2
39 30
40 9
40 11
40 14
42 2
42 10
42 16
42 19
42 22
43 2
43 13
43 19
43 23
43 27
43 42
44 31
45 17
45 19
45 37
46 2
46 4
46 12
46 14
46 19
46 20
46 21
46 32
46 34
47 6
49 4
49 8
49 14
49 15
49 18
49 19
49 20
50 17
50 19
50 37
50 45
51 19
51 28
52 12
52 19
52 36
52 49
53 2
53 19
53 42
53 43
54 2
54 35
55 2
55 4
55 19
55 32
55 34
55 46
56 2
56 35
57 9
57 40
58 2
58 3
58 7
58 17
58 19
58 33
58 34
58 35
58 37
58 45
58 50
59 4
59 18
59 20
59 49
60 13
60 19
60 27
60 43
60 51
61 15
61 49
63 16
63 22
63 42
66 1
66 2
66 4
66 14
66 16
66 19
66 20
66 21
66 24
66 32
66 34
66 35
66 39
66 42
66 43
66 46
66 49
66 53
66 55
67 2
67 11
67 16
67 23
67 24
67 29
67 31
67 33
67 35
67 42
67 54
67 66
68 12
68 19
68 28
68 49
68 51
68 52
69 19
69 28
69 49
69 51
69 52
69 58
69 68
70 32
70 34
70 46
70 55
71 8
71 18
71 19
71 20
71 34
71 46
71 49
71 58
71 59
71 69
72 2
72 3
72 19
72 23
72 29
72 33
72 35
72 43
72 58
72 67
73 17
73 19
73 37
73 45
73 50
73 58
74 2
74 4
74 12
74 14
74 19
74 20
74 21
74 32
74 34
74 46
74 55
74 66
74 70
76 2
76 9
76 11
76 14
76 16
76 31
76 35
76 40
76 44
76 54
76 66
76 67
77 16
77 22
77 42
77 63
78 5
79 1
79 2
79 4
79 14
79 20
79 21
79 49
79 66
80 2
80 24
80 66
80 67
80 76
81 2
81 19
81 42
81 43
81 53
81 66
83 1
83 2
83 3
83 4
83 5
83 6
83 7
83 8
83 9
83 10
83 11
83 12
83 14
83 15
83 16
83 17
83 18
83 19
83 20
83 21
83 22
83 23
83 24
83 25
83 26
83 28
83 29
83 30
83 31
83 32
83 33
83 34
83 35
83 36
83 37
83 38
83 39
83 40
83 41
83 42
83 43
83 44
83 45
83 46
83 47
83 48
83 49
83 50
83 51
83 52
83 53
83 54
83 55
83 56
83 57
83 58
83 59
83 61
83 62
83 63
83 64
83 65
83 66
83 67
83 68
83 69
83 70
83 71
83 72
83 73
83 74
83 75
83 76
83 77
83 78
83 79
83 80
83 81
83 82
84 17
84 19
84 37
84 45
84 50
84 58
84 73
84 83
85 13
85 19
85 27
85 43
85 51
85 60
86 2
86 35
86 66
86 83
87 2
87 3
87 4
87 7
87 17
87 19
87 20
87 23
87 29
87 32
87 33
87 34
87 35
87 37
87 42
87 43
87 45
87 46
87 50
87 53
87 55
87 58
87 66
87 67
87 72
87 73
87 74
87 81
87 83
87 84
11